Distance Matrix (rows/cols: 0=depot, 1..n=customers):
           0      1      2      3      4      5      6      7      8      9     10
   0    0.00  14.14  20.00  56.57  14.14  42.43  58.31  44.72  42.43  44.72  56.57
   1   14.14   0.00  14.14  70.71  20.00  56.57  72.11  58.31  44.72  42.43  58.31
   2   20.00  14.14   0.00  72.11  14.14  58.31  70.71  56.57  58.31  56.57  72.11
   3   56.57  70.71  72.11   0.00  58.31  14.14  14.14  20.00  70.71  82.46  80.00
   4   14.14  20.00  14.14  58.31   0.00  44.72  56.57  42.43  56.57  58.31  70.71
   5   42.43  56.57  58.31  14.14  44.72   0.00  20.00  14.14  60.00  70.71  70.71
   6   58.31  72.11  70.71  14.14  56.57  20.00   0.00  14.14  80.00  90.55  90.55
   7   44.72  58.31  56.57  20.00  42.43  14.14  14.14   0.00  70.71  80.00  82.46
   8   42.43  44.72  58.31  70.71  56.57  60.00  80.00  70.71   0.00  14.14  14.14
   9   44.72  42.43  56.57  82.46  58.31  70.71  90.55  80.00  14.14   0.00  20.00
  10   56.57  58.31  72.11  80.00  70.71  70.71  90.55  82.46  14.14  20.00   0.00
Route 1: 0 10 3 5 6 7 0 
Load: 10, Duration: 229.57
Route 2: 0 4 2 1 0 
Load: 9, Duration: 56.57
Route 3: 0 9 8 0 
Load: 6, Duration: 101.29
Arrival Times: 62.43 38.28 146.57 14.14 170.71 200.71 224.85 68.86 44.72 56.57 
Total Cost: 387.43
Initial penalized cost F2: 387.43
Considering moving customer 9 from route 3
Suitable routes for insertion: 1 
Route 1: 0 9 10 3 5 6 7 0 
Load: 14, Duration: 247.73
Route 2: 0 4 2 1 0 
Load: 9, Duration: 56.57
Route 3: 0 8 0 
Load: 2, Duration: 74.85
Arrival Times: 62.43 38.28 164.72 14.14 188.86 218.86 243.01 42.43 44.72 74.72 
Total Cost: 379.15
F2: 419.15
Route 1: 0 10 9 3 5 6 7 0 
Load: 14, Duration: 262.04
Route 2: 0 4 2 1 0 
Load: 9, Duration: 56.57
Route 3: 0 8 0 
Load: 2, Duration: 74.85
Arrival Times: 62.43 38.28 169.03 14.14 193.17 223.17 247.31 42.43 76.57 56.57 
Total Cost: 393.46
F2: 433.46
Route 1: 0 10 3 5 6 7 9 0 
Load: 14, Duration: 319.57
Route 2: 0 4 2 1 0 
Load: 9, Duration: 56.57
Route 3: 0 8 0 
Load: 2, Duration: 74.85
Arrival Times: 62.43 38.28 146.57 14.14 170.71 200.71 224.85 42.43 304.85 56.57 
Total Cost: 451.00
F2: 491.00
Best neighbor solution:
Route 1: 0 9 10 3 5 6 7 0 
Load: 14, Duration: 247.73
Route 2: 0 4 2 1 0 
Load: 9, Duration: 56.57
Route 3: 0 8 0 
Load: 2, Duration: 74.85
Arrival Times: 62.43 38.28 164.72 14.14 188.86 218.86 243.01 42.43 44.72 74.72 
Total Cost: 379.15
